p cnf 430 1460
c p weight 172 -1 0
c p weight -172 1 0
c p weight 174 6.12323399573676603586882014729198302312846062338790031898128063403419218957424163818359375E-17 0
c p weight -174 1 0
c p weight 175 1 0
c p weight -175 1 0
c p weight 176 -1 0
c p weight -176 1 0
c p weight 178 -1 0
c p weight -178 1 0
c p weight 181 -1 0
c p weight -181 1 0
c p weight 184 -1 0
c p weight -184 1 0
c p weight 187 -1 0
c p weight -187 1 0
c p weight 190 -1 0
c p weight -190 1 0
c p weight 193 -1 0
c p weight -193 1 0
c p weight 196 -1 0
c p weight -196 1 0
c p weight 199 -1 0
c p weight -199 1 0
c p weight 202 -1 0
c p weight -202 1 0
c p weight 205 -1 0
c p weight -205 1 0
c p weight 208 -1 0
c p weight -208 1 0
c p weight 211 -1 0
c p weight -211 1 0
c p weight 214 -1 0
c p weight -214 1 0
c p weight 217 -1 0
c p weight -217 1 0
c p weight 220 -1 0
c p weight -220 1 0
c p weight 223 -1 0
c p weight -223 1 0
c p weight 226 -1 0
c p weight -226 1 0
c p weight 229 -1 0
c p weight -229 1 0
c p weight 232 -1 0
c p weight -232 1 0
c p weight 235 -1 0
c p weight -235 1 0
c p weight 238 -1 0
c p weight -238 1 0
c p weight 241 -1 0
c p weight -241 1 0
c p weight 244 -1 0
c p weight -244 1 0
c p weight 247 -1 0
c p weight -247 1 0
c p weight 250 -1 0
c p weight -250 1 0
c p weight 253 -1 0
c p weight -253 1 0
c p weight 256 -1 0
c p weight -256 1 0
c p weight 259 -1 0
c p weight -259 1 0
c p weight 262 -1 0
c p weight -262 1 0
c p weight 265 -1 0
c p weight -265 1 0
c p weight 268 -1 0
c p weight -268 1 0
c p weight 271 -1 0
c p weight -271 1 0
c p weight 274 -1 0
c p weight -274 1 0
c p weight 277 -1 0
c p weight -277 1 0
c p weight 280 -1 0
c p weight -280 1 0
c p weight 283 -1 0
c p weight -283 1 0
c p weight 286 -1 0
c p weight -286 1 0
c p weight 289 -1 0
c p weight -289 1 0
c p weight 292 -1 0
c p weight -292 1 0
c p weight 295 -1 0
c p weight -295 1 0
c p weight 298 -1 0
c p weight -298 1 0
c p weight 301 -1 0
c p weight -301 1 0
c p weight 304 -1 0
c p weight -304 1 0
c p weight 307 -1 0
c p weight -307 1 0
c p weight 310 -1 0
c p weight -310 1 0
c p weight 313 -1 0
c p weight -313 1 0
c p weight 316 -1 0
c p weight -316 1 0
c p weight 319 -1 0
c p weight -319 1 0
c p weight 322 -1 0
c p weight -322 1 0
c p weight 325 -1 0
c p weight -325 1 0
c p weight 328 -1 0
c p weight -328 1 0
c p weight 331 -1 0
c p weight -331 1 0
c p weight 334 -1 0
c p weight -334 1 0
c p weight 337 -1 0
c p weight -337 1 0
c p weight 340 -1 0
c p weight -340 1 0
c p weight 343 -1 0
c p weight -343 1 0
c p weight 346 -1 0
c p weight -346 1 0
c p weight 349 -1 0
c p weight -349 1 0
c p weight 352 -1 0
c p weight -352 1 0
c p weight 355 -1 0
c p weight -355 1 0
c p weight 358 -1 0
c p weight -358 1 0
c p weight 361 -1 0
c p weight -361 1 0
c p weight 364 -1 0
c p weight -364 1 0
c p weight 367 -1 0
c p weight -367 1 0
c p weight 370 -1 0
c p weight -370 1 0
c p weight 373 -1 0
c p weight -373 1 0
c p weight 376 -1 0
c p weight -376 1 0
c p weight 379 -1 0
c p weight -379 1 0
c p weight 382 -1 0
c p weight -382 1 0
c p weight 385 -1 0
c p weight -385 1 0
c p weight 388 -1 0
c p weight -388 1 0
c p weight 391 -1 0
c p weight -391 1 0
c p weight 394 -1 0
c p weight -394 1 0
c p weight 397 -1 0
c p weight -397 1 0
c p weight 400 -1 0
c p weight -400 1 0
c p weight 403 -1 0
c p weight -403 1 0
c p weight 406 -1 0
c p weight -406 1 0
c p weight 409 -1 0
c p weight -409 1 0
c p weight 412 -1 0
c p weight -412 1 0
c p weight 415 -1 0
c p weight -415 1 0
c p weight 418 -1 0
c p weight -418 1 0
c p weight 421 -1 0
c p weight -421 1 0
c p weight 424 -1 0
c p weight -424 1 0
c p weight 427 -1 0
c p weight -427 1 0
c p weight 430 -1 0
c p weight -430 1 0
-169 0
-167 0
-165 0
-163 0
-161 0
-159 0
-157 0
-155 0
-153 0
-151 0
-149 0
-147 0
-145 0
-143 0
-141 0
-139 0
-137 0
-135 0
-133 0
-131 0
-129 0
-127 0
-125 0
-123 0
-121 0
-119 0
-117 0
-115 0
-113 0
-111 0
-109 0
-107 0
-105 0
-103 0
-101 0
-99 0
-97 0
-95 0
-93 0
-91 0
-89 0
-87 0
-85 0
-83 0
-81 0
-79 0
-77 0
-75 0
-73 0
-71 0
-69 0
-67 0
-65 0
-63 0
-61 0
-59 0
-57 0
-55 0
-53 0
-51 0
-49 0
-47 0
-45 0
-43 0
-41 0
-39 0
-37 0
-35 0
-33 0
-31 0
-29 0
-27 0
-25 0
-23 0
-21 0
-19 0
-17 0
-15 0
-13 0
-11 0
-9 0
-7 0
-5 0
-3 0
-1 0
171 169 -170 0
171 -169 170 0
-171 169 170 0
-171 -169 -170 0
-172 169 0
-172 170 0
172 -169 -170 0
173 -169 171 0
-173 169 171 0
-174 171 0
173 -174 -169 0
-173 -174 169 0
173 174 169 -171 0
-173 174 -169 -171 0
-175 171 0
173 -175 169 0
-173 -175 -169 0
173 175 -169 -171 0
-173 175 169 -171 0
-176 173 0
-176 171 0
-176 -169 0
176 -173 169 -171 0
177 173 -171 0
177 -173 171 0
-177 173 171 0
-177 -173 -171 0
-178 173 0
-178 171 0
178 -173 -171 0
179 173 -167 0
179 -173 167 0
-179 173 167 0
-179 -173 -167 0
180 177 -168 0
180 -177 168 0
-180 177 168 0
-180 -177 -168 0
-181 173 0
-181 168 0
-181 167 -177 0
-181 -167 177 0
181 -173 167 177 -168 0
181 -173 -167 -177 -168 0
182 179 -165 0
182 -179 165 0
-182 179 165 0
-182 -179 -165 0
183 168 -166 0
183 -168 166 0
-183 168 166 0
-183 -168 -166 0
-184 179 0
-184 166 0
-184 165 -168 0
-184 -165 168 0
184 -179 165 168 -166 0
184 -179 -165 -168 -166 0
185 182 -163 0
185 -182 163 0
-185 182 163 0
-185 -182 -163 0
186 166 -164 0
186 -166 164 0
-186 166 164 0
-186 -166 -164 0
-187 182 0
-187 164 0
-187 163 -166 0
-187 -163 166 0
187 -182 163 166 -164 0
187 -182 -163 -166 -164 0
188 185 -161 0
188 -185 161 0
-188 185 161 0
-188 -185 -161 0
189 164 -162 0
189 -164 162 0
-189 164 162 0
-189 -164 -162 0
-190 185 0
-190 162 0
-190 161 -164 0
-190 -161 164 0
190 -185 161 164 -162 0
190 -185 -161 -164 -162 0
191 188 -159 0
191 -188 159 0
-191 188 159 0
-191 -188 -159 0
192 162 -160 0
192 -162 160 0
-192 162 160 0
-192 -162 -160 0
-193 188 0
-193 160 0
-193 159 -162 0
-193 -159 162 0
193 -188 159 162 -160 0
193 -188 -159 -162 -160 0
194 191 -157 0
194 -191 157 0
-194 191 157 0
-194 -191 -157 0
195 160 -158 0
195 -160 158 0
-195 160 158 0
-195 -160 -158 0
-196 191 0
-196 158 0
-196 157 -160 0
-196 -157 160 0
196 -191 157 160 -158 0
196 -191 -157 -160 -158 0
197 194 -155 0
197 -194 155 0
-197 194 155 0
-197 -194 -155 0
198 158 -156 0
198 -158 156 0
-198 158 156 0
-198 -158 -156 0
-199 194 0
-199 156 0
-199 155 -158 0
-199 -155 158 0
199 -194 155 158 -156 0
199 -194 -155 -158 -156 0
200 197 -153 0
200 -197 153 0
-200 197 153 0
-200 -197 -153 0
201 156 -154 0
201 -156 154 0
-201 156 154 0
-201 -156 -154 0
-202 197 0
-202 154 0
-202 153 -156 0
-202 -153 156 0
202 -197 153 156 -154 0
202 -197 -153 -156 -154 0
203 200 -151 0
203 -200 151 0
-203 200 151 0
-203 -200 -151 0
204 154 -152 0
204 -154 152 0
-204 154 152 0
-204 -154 -152 0
-205 200 0
-205 152 0
-205 151 -154 0
-205 -151 154 0
205 -200 151 154 -152 0
205 -200 -151 -154 -152 0
206 203 -149 0
206 -203 149 0
-206 203 149 0
-206 -203 -149 0
207 152 -150 0
207 -152 150 0
-207 152 150 0
-207 -152 -150 0
-208 203 0
-208 150 0
-208 149 -152 0
-208 -149 152 0
208 -203 149 152 -150 0
208 -203 -149 -152 -150 0
209 206 -147 0
209 -206 147 0
-209 206 147 0
-209 -206 -147 0
210 150 -148 0
210 -150 148 0
-210 150 148 0
-210 -150 -148 0
-211 206 0
-211 148 0
-211 147 -150 0
-211 -147 150 0
211 -206 147 150 -148 0
211 -206 -147 -150 -148 0
212 209 -145 0
212 -209 145 0
-212 209 145 0
-212 -209 -145 0
213 148 -146 0
213 -148 146 0
-213 148 146 0
-213 -148 -146 0
-214 209 0
-214 146 0
-214 145 -148 0
-214 -145 148 0
214 -209 145 148 -146 0
214 -209 -145 -148 -146 0
215 212 -143 0
215 -212 143 0
-215 212 143 0
-215 -212 -143 0
216 146 -144 0
216 -146 144 0
-216 146 144 0
-216 -146 -144 0
-217 212 0
-217 144 0
-217 143 -146 0
-217 -143 146 0
217 -212 143 146 -144 0
217 -212 -143 -146 -144 0
218 215 -141 0
218 -215 141 0
-218 215 141 0
-218 -215 -141 0
219 144 -142 0
219 -144 142 0
-219 144 142 0
-219 -144 -142 0
-220 215 0
-220 142 0
-220 141 -144 0
-220 -141 144 0
220 -215 141 144 -142 0
220 -215 -141 -144 -142 0
221 218 -139 0
221 -218 139 0
-221 218 139 0
-221 -218 -139 0
222 142 -140 0
222 -142 140 0
-222 142 140 0
-222 -142 -140 0
-223 218 0
-223 140 0
-223 139 -142 0
-223 -139 142 0
223 -218 139 142 -140 0
223 -218 -139 -142 -140 0
224 221 -137 0
224 -221 137 0
-224 221 137 0
-224 -221 -137 0
225 140 -138 0
225 -140 138 0
-225 140 138 0
-225 -140 -138 0
-226 221 0
-226 138 0
-226 137 -140 0
-226 -137 140 0
226 -221 137 140 -138 0
226 -221 -137 -140 -138 0
227 224 -135 0
227 -224 135 0
-227 224 135 0
-227 -224 -135 0
228 138 -136 0
228 -138 136 0
-228 138 136 0
-228 -138 -136 0
-229 224 0
-229 136 0
-229 135 -138 0
-229 -135 138 0
229 -224 135 138 -136 0
229 -224 -135 -138 -136 0
230 227 -133 0
230 -227 133 0
-230 227 133 0
-230 -227 -133 0
231 136 -134 0
231 -136 134 0
-231 136 134 0
-231 -136 -134 0
-232 227 0
-232 134 0
-232 133 -136 0
-232 -133 136 0
232 -227 133 136 -134 0
232 -227 -133 -136 -134 0
233 230 -131 0
233 -230 131 0
-233 230 131 0
-233 -230 -131 0
234 134 -132 0
234 -134 132 0
-234 134 132 0
-234 -134 -132 0
-235 230 0
-235 132 0
-235 131 -134 0
-235 -131 134 0
235 -230 131 134 -132 0
235 -230 -131 -134 -132 0
236 233 -129 0
236 -233 129 0
-236 233 129 0
-236 -233 -129 0
237 132 -130 0
237 -132 130 0
-237 132 130 0
-237 -132 -130 0
-238 233 0
-238 130 0
-238 129 -132 0
-238 -129 132 0
238 -233 129 132 -130 0
238 -233 -129 -132 -130 0
239 236 -127 0
239 -236 127 0
-239 236 127 0
-239 -236 -127 0
240 130 -128 0
240 -130 128 0
-240 130 128 0
-240 -130 -128 0
-241 236 0
-241 128 0
-241 127 -130 0
-241 -127 130 0
241 -236 127 130 -128 0
241 -236 -127 -130 -128 0
242 239 -125 0
242 -239 125 0
-242 239 125 0
-242 -239 -125 0
243 128 -126 0
243 -128 126 0
-243 128 126 0
-243 -128 -126 0
-244 239 0
-244 126 0
-244 125 -128 0
-244 -125 128 0
244 -239 125 128 -126 0
244 -239 -125 -128 -126 0
245 242 -123 0
245 -242 123 0
-245 242 123 0
-245 -242 -123 0
246 126 -124 0
246 -126 124 0
-246 126 124 0
-246 -126 -124 0
-247 242 0
-247 124 0
-247 123 -126 0
-247 -123 126 0
247 -242 123 126 -124 0
247 -242 -123 -126 -124 0
248 245 -121 0
248 -245 121 0
-248 245 121 0
-248 -245 -121 0
249 124 -122 0
249 -124 122 0
-249 124 122 0
-249 -124 -122 0
-250 245 0
-250 122 0
-250 121 -124 0
-250 -121 124 0
250 -245 121 124 -122 0
250 -245 -121 -124 -122 0
251 248 -119 0
251 -248 119 0
-251 248 119 0
-251 -248 -119 0
252 122 -120 0
252 -122 120 0
-252 122 120 0
-252 -122 -120 0
-253 248 0
-253 120 0
-253 119 -122 0
-253 -119 122 0
253 -248 119 122 -120 0
253 -248 -119 -122 -120 0
254 251 -117 0
254 -251 117 0
-254 251 117 0
-254 -251 -117 0
255 120 -118 0
255 -120 118 0
-255 120 118 0
-255 -120 -118 0
-256 251 0
-256 118 0
-256 117 -120 0
-256 -117 120 0
256 -251 117 120 -118 0
256 -251 -117 -120 -118 0
257 254 -115 0
257 -254 115 0
-257 254 115 0
-257 -254 -115 0
258 118 -116 0
258 -118 116 0
-258 118 116 0
-258 -118 -116 0
-259 254 0
-259 116 0
-259 115 -118 0
-259 -115 118 0
259 -254 115 118 -116 0
259 -254 -115 -118 -116 0
260 257 -113 0
260 -257 113 0
-260 257 113 0
-260 -257 -113 0
261 116 -114 0
261 -116 114 0
-261 116 114 0
-261 -116 -114 0
-262 257 0
-262 114 0
-262 113 -116 0
-262 -113 116 0
262 -257 113 116 -114 0
262 -257 -113 -116 -114 0
263 260 -111 0
263 -260 111 0
-263 260 111 0
-263 -260 -111 0
264 114 -112 0
264 -114 112 0
-264 114 112 0
-264 -114 -112 0
-265 260 0
-265 112 0
-265 111 -114 0
-265 -111 114 0
265 -260 111 114 -112 0
265 -260 -111 -114 -112 0
266 263 -109 0
266 -263 109 0
-266 263 109 0
-266 -263 -109 0
267 112 -110 0
267 -112 110 0
-267 112 110 0
-267 -112 -110 0
-268 263 0
-268 110 0
-268 109 -112 0
-268 -109 112 0
268 -263 109 112 -110 0
268 -263 -109 -112 -110 0
269 266 -107 0
269 -266 107 0
-269 266 107 0
-269 -266 -107 0
270 110 -108 0
270 -110 108 0
-270 110 108 0
-270 -110 -108 0
-271 266 0
-271 108 0
-271 107 -110 0
-271 -107 110 0
271 -266 107 110 -108 0
271 -266 -107 -110 -108 0
272 269 -105 0
272 -269 105 0
-272 269 105 0
-272 -269 -105 0
273 108 -106 0
273 -108 106 0
-273 108 106 0
-273 -108 -106 0
-274 269 0
-274 106 0
-274 105 -108 0
-274 -105 108 0
274 -269 105 108 -106 0
274 -269 -105 -108 -106 0
275 272 -103 0
275 -272 103 0
-275 272 103 0
-275 -272 -103 0
276 106 -104 0
276 -106 104 0
-276 106 104 0
-276 -106 -104 0
-277 272 0
-277 104 0
-277 103 -106 0
-277 -103 106 0
277 -272 103 106 -104 0
277 -272 -103 -106 -104 0
278 275 -101 0
278 -275 101 0
-278 275 101 0
-278 -275 -101 0
279 104 -102 0
279 -104 102 0
-279 104 102 0
-279 -104 -102 0
-280 275 0
-280 102 0
-280 101 -104 0
-280 -101 104 0
280 -275 101 104 -102 0
280 -275 -101 -104 -102 0
281 278 -99 0
281 -278 99 0
-281 278 99 0
-281 -278 -99 0
282 102 -100 0
282 -102 100 0
-282 102 100 0
-282 -102 -100 0
-283 278 0
-283 100 0
-283 99 -102 0
-283 -99 102 0
283 -278 99 102 -100 0
283 -278 -99 -102 -100 0
284 281 -97 0
284 -281 97 0
-284 281 97 0
-284 -281 -97 0
285 100 -98 0
285 -100 98 0
-285 100 98 0
-285 -100 -98 0
-286 281 0
-286 98 0
-286 97 -100 0
-286 -97 100 0
286 -281 97 100 -98 0
286 -281 -97 -100 -98 0
287 284 -95 0
287 -284 95 0
-287 284 95 0
-287 -284 -95 0
288 98 -96 0
288 -98 96 0
-288 98 96 0
-288 -98 -96 0
-289 284 0
-289 96 0
-289 95 -98 0
-289 -95 98 0
289 -284 95 98 -96 0
289 -284 -95 -98 -96 0
290 287 -93 0
290 -287 93 0
-290 287 93 0
-290 -287 -93 0
291 96 -94 0
291 -96 94 0
-291 96 94 0
-291 -96 -94 0
-292 287 0
-292 94 0
-292 93 -96 0
-292 -93 96 0
292 -287 93 96 -94 0
292 -287 -93 -96 -94 0
293 290 -91 0
293 -290 91 0
-293 290 91 0
-293 -290 -91 0
294 94 -92 0
294 -94 92 0
-294 94 92 0
-294 -94 -92 0
-295 290 0
-295 92 0
-295 91 -94 0
-295 -91 94 0
295 -290 91 94 -92 0
295 -290 -91 -94 -92 0
296 293 -89 0
296 -293 89 0
-296 293 89 0
-296 -293 -89 0
297 92 -90 0
297 -92 90 0
-297 92 90 0
-297 -92 -90 0
-298 293 0
-298 90 0
-298 89 -92 0
-298 -89 92 0
298 -293 89 92 -90 0
298 -293 -89 -92 -90 0
299 296 -87 0
299 -296 87 0
-299 296 87 0
-299 -296 -87 0
300 90 -88 0
300 -90 88 0
-300 90 88 0
-300 -90 -88 0
-301 296 0
-301 88 0
-301 87 -90 0
-301 -87 90 0
301 -296 87 90 -88 0
301 -296 -87 -90 -88 0
302 299 -85 0
302 -299 85 0
-302 299 85 0
-302 -299 -85 0
303 88 -86 0
303 -88 86 0
-303 88 86 0
-303 -88 -86 0
-304 299 0
-304 86 0
-304 85 -88 0
-304 -85 88 0
304 -299 85 88 -86 0
304 -299 -85 -88 -86 0
305 302 -83 0
305 -302 83 0
-305 302 83 0
-305 -302 -83 0
306 86 -84 0
306 -86 84 0
-306 86 84 0
-306 -86 -84 0
-307 302 0
-307 84 0
-307 83 -86 0
-307 -83 86 0
307 -302 83 86 -84 0
307 -302 -83 -86 -84 0
308 305 -81 0
308 -305 81 0
-308 305 81 0
-308 -305 -81 0
309 84 -82 0
309 -84 82 0
-309 84 82 0
-309 -84 -82 0
-310 305 0
-310 82 0
-310 81 -84 0
-310 -81 84 0
310 -305 81 84 -82 0
310 -305 -81 -84 -82 0
311 308 -79 0
311 -308 79 0
-311 308 79 0
-311 -308 -79 0
312 82 -80 0
312 -82 80 0
-312 82 80 0
-312 -82 -80 0
-313 308 0
-313 80 0
-313 79 -82 0
-313 -79 82 0
313 -308 79 82 -80 0
313 -308 -79 -82 -80 0
314 311 -77 0
314 -311 77 0
-314 311 77 0
-314 -311 -77 0
315 80 -78 0
315 -80 78 0
-315 80 78 0
-315 -80 -78 0
-316 311 0
-316 78 0
-316 77 -80 0
-316 -77 80 0
316 -311 77 80 -78 0
316 -311 -77 -80 -78 0
317 314 -75 0
317 -314 75 0
-317 314 75 0
-317 -314 -75 0
318 78 -76 0
318 -78 76 0
-318 78 76 0
-318 -78 -76 0
-319 314 0
-319 76 0
-319 75 -78 0
-319 -75 78 0
319 -314 75 78 -76 0
319 -314 -75 -78 -76 0
320 317 -73 0
320 -317 73 0
-320 317 73 0
-320 -317 -73 0
321 76 -74 0
321 -76 74 0
-321 76 74 0
-321 -76 -74 0
-322 317 0
-322 74 0
-322 73 -76 0
-322 -73 76 0
322 -317 73 76 -74 0
322 -317 -73 -76 -74 0
323 320 -71 0
323 -320 71 0
-323 320 71 0
-323 -320 -71 0
324 74 -72 0
324 -74 72 0
-324 74 72 0
-324 -74 -72 0
-325 320 0
-325 72 0
-325 71 -74 0
-325 -71 74 0
325 -320 71 74 -72 0
325 -320 -71 -74 -72 0
326 323 -69 0
326 -323 69 0
-326 323 69 0
-326 -323 -69 0
327 72 -70 0
327 -72 70 0
-327 72 70 0
-327 -72 -70 0
-328 323 0
-328 70 0
-328 69 -72 0
-328 -69 72 0
328 -323 69 72 -70 0
328 -323 -69 -72 -70 0
329 326 -67 0
329 -326 67 0
-329 326 67 0
-329 -326 -67 0
330 70 -68 0
330 -70 68 0
-330 70 68 0
-330 -70 -68 0
-331 326 0
-331 68 0
-331 67 -70 0
-331 -67 70 0
331 -326 67 70 -68 0
331 -326 -67 -70 -68 0
332 329 -65 0
332 -329 65 0
-332 329 65 0
-332 -329 -65 0
333 68 -66 0
333 -68 66 0
-333 68 66 0
-333 -68 -66 0
-334 329 0
-334 66 0
-334 65 -68 0
-334 -65 68 0
334 -329 65 68 -66 0
334 -329 -65 -68 -66 0
335 332 -63 0
335 -332 63 0
-335 332 63 0
-335 -332 -63 0
336 66 -64 0
336 -66 64 0
-336 66 64 0
-336 -66 -64 0
-337 332 0
-337 64 0
-337 63 -66 0
-337 -63 66 0
337 -332 63 66 -64 0
337 -332 -63 -66 -64 0
338 335 -61 0
338 -335 61 0
-338 335 61 0
-338 -335 -61 0
339 64 -62 0
339 -64 62 0
-339 64 62 0
-339 -64 -62 0
-340 335 0
-340 62 0
-340 61 -64 0
-340 -61 64 0
340 -335 61 64 -62 0
340 -335 -61 -64 -62 0
341 338 -59 0
341 -338 59 0
-341 338 59 0
-341 -338 -59 0
342 62 -60 0
342 -62 60 0
-342 62 60 0
-342 -62 -60 0
-343 338 0
-343 60 0
-343 59 -62 0
-343 -59 62 0
343 -338 59 62 -60 0
343 -338 -59 -62 -60 0
344 341 -57 0
344 -341 57 0
-344 341 57 0
-344 -341 -57 0
345 60 -58 0
345 -60 58 0
-345 60 58 0
-345 -60 -58 0
-346 341 0
-346 58 0
-346 57 -60 0
-346 -57 60 0
346 -341 57 60 -58 0
346 -341 -57 -60 -58 0
347 344 -55 0
347 -344 55 0
-347 344 55 0
-347 -344 -55 0
348 58 -56 0
348 -58 56 0
-348 58 56 0
-348 -58 -56 0
-349 344 0
-349 56 0
-349 55 -58 0
-349 -55 58 0
349 -344 55 58 -56 0
349 -344 -55 -58 -56 0
350 347 -53 0
350 -347 53 0
-350 347 53 0
-350 -347 -53 0
351 56 -54 0
351 -56 54 0
-351 56 54 0
-351 -56 -54 0
-352 347 0
-352 54 0
-352 53 -56 0
-352 -53 56 0
352 -347 53 56 -54 0
352 -347 -53 -56 -54 0
353 350 -51 0
353 -350 51 0
-353 350 51 0
-353 -350 -51 0
354 54 -52 0
354 -54 52 0
-354 54 52 0
-354 -54 -52 0
-355 350 0
-355 52 0
-355 51 -54 0
-355 -51 54 0
355 -350 51 54 -52 0
355 -350 -51 -54 -52 0
356 353 -49 0
356 -353 49 0
-356 353 49 0
-356 -353 -49 0
357 52 -50 0
357 -52 50 0
-357 52 50 0
-357 -52 -50 0
-358 353 0
-358 50 0
-358 49 -52 0
-358 -49 52 0
358 -353 49 52 -50 0
358 -353 -49 -52 -50 0
359 356 -47 0
359 -356 47 0
-359 356 47 0
-359 -356 -47 0
360 50 -48 0
360 -50 48 0
-360 50 48 0
-360 -50 -48 0
-361 356 0
-361 48 0
-361 47 -50 0
-361 -47 50 0
361 -356 47 50 -48 0
361 -356 -47 -50 -48 0
362 359 -45 0
362 -359 45 0
-362 359 45 0
-362 -359 -45 0
363 48 -46 0
363 -48 46 0
-363 48 46 0
-363 -48 -46 0
-364 359 0
-364 46 0
-364 45 -48 0
-364 -45 48 0
364 -359 45 48 -46 0
364 -359 -45 -48 -46 0
365 362 -43 0
365 -362 43 0
-365 362 43 0
-365 -362 -43 0
366 46 -44 0
366 -46 44 0
-366 46 44 0
-366 -46 -44 0
-367 362 0
-367 44 0
-367 43 -46 0
-367 -43 46 0
367 -362 43 46 -44 0
367 -362 -43 -46 -44 0
368 365 -41 0
368 -365 41 0
-368 365 41 0
-368 -365 -41 0
369 44 -42 0
369 -44 42 0
-369 44 42 0
-369 -44 -42 0
-370 365 0
-370 42 0
-370 41 -44 0
-370 -41 44 0
370 -365 41 44 -42 0
370 -365 -41 -44 -42 0
371 368 -39 0
371 -368 39 0
-371 368 39 0
-371 -368 -39 0
372 42 -40 0
372 -42 40 0
-372 42 40 0
-372 -42 -40 0
-373 368 0
-373 40 0
-373 39 -42 0
-373 -39 42 0
373 -368 39 42 -40 0
373 -368 -39 -42 -40 0
374 371 -37 0
374 -371 37 0
-374 371 37 0
-374 -371 -37 0
375 40 -38 0
375 -40 38 0
-375 40 38 0
-375 -40 -38 0
-376 371 0
-376 38 0
-376 37 -40 0
-376 -37 40 0
376 -371 37 40 -38 0
376 -371 -37 -40 -38 0
377 374 -35 0
377 -374 35 0
-377 374 35 0
-377 -374 -35 0
378 38 -36 0
378 -38 36 0
-378 38 36 0
-378 -38 -36 0
-379 374 0
-379 36 0
-379 35 -38 0
-379 -35 38 0
379 -374 35 38 -36 0
379 -374 -35 -38 -36 0
380 377 -33 0
380 -377 33 0
-380 377 33 0
-380 -377 -33 0
381 36 -34 0
381 -36 34 0
-381 36 34 0
-381 -36 -34 0
-382 377 0
-382 34 0
-382 33 -36 0
-382 -33 36 0
382 -377 33 36 -34 0
382 -377 -33 -36 -34 0
383 380 -31 0
383 -380 31 0
-383 380 31 0
-383 -380 -31 0
384 34 -32 0
384 -34 32 0
-384 34 32 0
-384 -34 -32 0
-385 380 0
-385 32 0
-385 31 -34 0
-385 -31 34 0
385 -380 31 34 -32 0
385 -380 -31 -34 -32 0
386 383 -29 0
386 -383 29 0
-386 383 29 0
-386 -383 -29 0
387 32 -30 0
387 -32 30 0
-387 32 30 0
-387 -32 -30 0
-388 383 0
-388 30 0
-388 29 -32 0
-388 -29 32 0
388 -383 29 32 -30 0
388 -383 -29 -32 -30 0
389 386 -27 0
389 -386 27 0
-389 386 27 0
-389 -386 -27 0
390 30 -28 0
390 -30 28 0
-390 30 28 0
-390 -30 -28 0
-391 386 0
-391 28 0
-391 27 -30 0
-391 -27 30 0
391 -386 27 30 -28 0
391 -386 -27 -30 -28 0
392 389 -25 0
392 -389 25 0
-392 389 25 0
-392 -389 -25 0
393 28 -26 0
393 -28 26 0
-393 28 26 0
-393 -28 -26 0
-394 389 0
-394 26 0
-394 25 -28 0
-394 -25 28 0
394 -389 25 28 -26 0
394 -389 -25 -28 -26 0
395 392 -23 0
395 -392 23 0
-395 392 23 0
-395 -392 -23 0
396 26 -24 0
396 -26 24 0
-396 26 24 0
-396 -26 -24 0
-397 392 0
-397 24 0
-397 23 -26 0
-397 -23 26 0
397 -392 23 26 -24 0
397 -392 -23 -26 -24 0
398 395 -21 0
398 -395 21 0
-398 395 21 0
-398 -395 -21 0
399 24 -22 0
399 -24 22 0
-399 24 22 0
-399 -24 -22 0
-400 395 0
-400 22 0
-400 21 -24 0
-400 -21 24 0
400 -395 21 24 -22 0
400 -395 -21 -24 -22 0
401 398 -19 0
401 -398 19 0
-401 398 19 0
-401 -398 -19 0
402 22 -20 0
402 -22 20 0
-402 22 20 0
-402 -22 -20 0
-403 398 0
-403 20 0
-403 19 -22 0
-403 -19 22 0
403 -398 19 22 -20 0
403 -398 -19 -22 -20 0
404 401 -17 0
404 -401 17 0
-404 401 17 0
-404 -401 -17 0
405 20 -18 0
405 -20 18 0
-405 20 18 0
-405 -20 -18 0
-406 401 0
-406 18 0
-406 17 -20 0
-406 -17 20 0
406 -401 17 20 -18 0
406 -401 -17 -20 -18 0
407 404 -15 0
407 -404 15 0
-407 404 15 0
-407 -404 -15 0
408 18 -16 0
408 -18 16 0
-408 18 16 0
-408 -18 -16 0
-409 404 0
-409 16 0
-409 15 -18 0
-409 -15 18 0
409 -404 15 18 -16 0
409 -404 -15 -18 -16 0
410 407 -13 0
410 -407 13 0
-410 407 13 0
-410 -407 -13 0
411 16 -14 0
411 -16 14 0
-411 16 14 0
-411 -16 -14 0
-412 407 0
-412 14 0
-412 13 -16 0
-412 -13 16 0
412 -407 13 16 -14 0
412 -407 -13 -16 -14 0
413 410 -11 0
413 -410 11 0
-413 410 11 0
-413 -410 -11 0
414 14 -12 0
414 -14 12 0
-414 14 12 0
-414 -14 -12 0
-415 410 0
-415 12 0
-415 11 -14 0
-415 -11 14 0
415 -410 11 14 -12 0
415 -410 -11 -14 -12 0
416 413 -9 0
416 -413 9 0
-416 413 9 0
-416 -413 -9 0
417 12 -10 0
417 -12 10 0
-417 12 10 0
-417 -12 -10 0
-418 413 0
-418 10 0
-418 9 -12 0
-418 -9 12 0
418 -413 9 12 -10 0
418 -413 -9 -12 -10 0
419 416 -7 0
419 -416 7 0
-419 416 7 0
-419 -416 -7 0
420 10 -8 0
420 -10 8 0
-420 10 8 0
-420 -10 -8 0
-421 416 0
-421 8 0
-421 7 -10 0
-421 -7 10 0
421 -416 7 10 -8 0
421 -416 -7 -10 -8 0
422 419 -5 0
422 -419 5 0
-422 419 5 0
-422 -419 -5 0
423 8 -6 0
423 -8 6 0
-423 8 6 0
-423 -8 -6 0
-424 419 0
-424 6 0
-424 5 -8 0
-424 -5 8 0
424 -419 5 8 -6 0
424 -419 -5 -8 -6 0
425 422 -3 0
425 -422 3 0
-425 422 3 0
-425 -422 -3 0
426 6 -4 0
426 -6 4 0
-426 6 4 0
-426 -6 -4 0
-427 422 0
-427 4 0
-427 3 -6 0
-427 -3 6 0
427 -422 3 6 -4 0
427 -422 -3 -6 -4 0
428 425 -1 0
428 -425 1 0
-428 425 1 0
-428 -425 -1 0
429 4 -2 0
429 -4 2 0
-429 4 2 0
-429 -4 -2 0
-430 425 0
-430 2 0
-430 1 -4 0
-430 -1 4 0
430 -425 1 4 -2 0
430 -425 -1 -4 -2 0
-428 0
-425 0
-429 0
-422 0
-426 0
-419 0
-423 0
-416 0
-420 0
-413 0
-417 0
-410 0
-414 0
-407 0
-411 0
-404 0
-408 0
-401 0
-405 0
-398 0
-402 0
-395 0
-399 0
-392 0
-396 0
-389 0
-393 0
-386 0
-390 0
-383 0
-387 0
-380 0
-384 0
-377 0
-381 0
-374 0
-378 0
-371 0
-375 0
-368 0
-372 0
-365 0
-369 0
-362 0
-366 0
-359 0
-363 0
-356 0
-360 0
-353 0
-357 0
-350 0
-354 0
-347 0
-351 0
-344 0
-348 0
-341 0
-345 0
-338 0
-342 0
-335 0
-339 0
-332 0
-336 0
-329 0
-333 0
-326 0
-330 0
-323 0
-327 0
-320 0
-324 0
-317 0
-321 0
-314 0
-318 0
-311 0
-315 0
-308 0
-312 0
-305 0
-309 0
-302 0
-306 0
-299 0
-303 0
-296 0
-300 0
-293 0
-297 0
-290 0
-294 0
-287 0
-291 0
-284 0
-288 0
-281 0
-285 0
-278 0
-282 0
-275 0
-279 0
-272 0
-276 0
-269 0
-273 0
-266 0
-270 0
-263 0
-267 0
-260 0
-264 0
-257 0
-261 0
-254 0
-258 0
-251 0
-255 0
-248 0
-252 0
-245 0
-249 0
-242 0
-246 0
-239 0
-243 0
-236 0
-240 0
-233 0
-237 0
-230 0
-234 0
-227 0
-231 0
-224 0
-228 0
-221 0
-225 0
-218 0
-222 0
-215 0
-219 0
-212 0
-216 0
-209 0
-213 0
-206 0
-210 0
-203 0
-207 0
-200 0
-204 0
-197 0
-201 0
-194 0
-198 0
-191 0
-195 0
-188 0
-192 0
-185 0
-189 0
-182 0
-186 0
-179 0
-183 0
-173 0
-180 0
